p cnf 100 150
1 18 0
1 97 0
1 39 0
2 65 0
2 40 0
2 60 0
3 54 0
3 86 0
3 4 0
4 67 0
4 13 0
5 62 0
5 50 0
5 23 0
6 64 0
6 35 0
6 11 0
7 79 0
7 93 0
7 40 0
8 42 0
8 33 0
8 63 0
9 68 0
9 32 0
9 19 0
10 49 0
10 31 0
10 17 0
11 38 0
11 46 0
12 54 0
12 74 0
12 78 0
13 53 0
13 52 0
14 79 0
14 99 0
14 16 0
15 29 0
15 80 0
15 76 0
16 38 0
16 21 0
17 99 0
17 62 0
18 21 0
18 51 0
19 72 0
19 87 0
20 56 0
20 43 0
20 22 0
21 36 0
22 87 0
22 41 0
23 82 0
23 84 0
24 35 0
24 77 0
24 75 0
25 89 0
25 90 0
25 56 0
26 90 0
26 30 0
26 48 0
27 54 0
27 51 0
27 55 0
28 64 0
28 100 0
28 83 0
29 81 0
29 73 0
30 47 0
30 84 0
31 59 0
31 70 0
32 58 0
32 76 0
33 89 0
33 47 0
34 80 0
34 73 0
34 91 0
35 100 0
36 74 0
36 42 0
37 57 0
37 44 0
37 50 0
38 42 0
39 95 0
39 93 0
40 82 0
41 92 0
41 48 0
43 66 0
43 55 0
44 73 0
44 85 0
45 92 0
45 57 0
45 71 0
46 74 0
46 60 0
47 75 0
48 88 0
49 58 0
49 85 0
50 71 0
51 61 0
52 63 0
52 93 0
53 58 0
53 94 0
55 68 0
56 76 0
57 70 0
59 80 0
59 69 0
60 96 0
61 75 0
61 65 0
62 89 0
63 96 0
64 91 0
65 92 0
66 82 0
66 83 0
67 91 0
67 95 0
68 97 0
69 84 0
69 86 0
70 88 0
71 100 0
72 83 0
72 87 0
77 95 0
77 81 0
78 99 0
78 86 0
79 97 0
81 88 0
85 94 0
90 98 0
94 98 0
96 98 0
g -61